NAME : toy9
COMMENT : toy instance with 9 customers
TYPE : TSP
DIMENSION: 9
EDGE_WEIGHT_TYPE : EUC_2D
NODE_COORD_SECTION
  1 0 0
  2 0 100 
  3 100 100
  4 100 0
  5 37 118
  6 216 45
  7 230 15
  8 2 337
  9 55 65
EOF
